data;


param d:= 100;
param r:=5;
param p:=0.500000;
param M:=1000;
param U:=
         1         1        8.995685e-02
         2         1       -1.105230e+00
         3         1        3.161494e-01
         4         1        7.901028e-02
         5         1        4.954521e-01
         6         1       -1.163455e+00
         7         1       -2.491414e+00
         8         1        9.893895e-01
         9         1       -1.088295e+00
        10         1       -1.642443e+00
        11         1        1.426277e+00
        12         1        3.839110e-01
        13         1       -1.056097e+00
        14         1       -1.465350e+00
        15         1        2.199690e-02
        16         1        2.851494e-01
        17         1       -6.797859e-01
        18         1       -7.346699e-01
        19         1        1.684635e+00
        20         1        1.019296e+00
        21         1        9.614200e-01
        22         1        4.843261e-01
        23         1       -1.455590e-02
        24         1       -5.026706e-01
        25         1        4.924392e-01
        26         1        1.006990e+00
        27         1       -3.959231e-01
        28         1        1.756805e+00
        29         1       -5.471060e-01
        30         1        7.890492e-02
        31         1       -5.878660e-01
        32         1        2.219730e+00
        33         1        1.326005e+00
        34         1       -1.613406e+00
        35         1       -1.529806e+00
        36         1        1.490943e+00
        37         1       -8.422223e-01
        38         1       -6.519095e-01
        39         1        5.093141e-01
        40         1        3.104000e-01
        41         1       -1.111357e+00
        42         1       -5.252517e-01
        43         1        3.523425e+00
        44         1       -1.323692e+00
        45         1        4.154852e-01
        46         1        5.630264e-01
        47         1        9.618191e-02
        48         1        6.273535e-01
        49         1       -1.068846e+00
        50         1       -2.972522e-01
        51         1        1.077136e+00
        52         1       -1.191943e+00
        53         1        6.719752e-01
        54         1       -1.582178e+00
        55         1       -5.400286e-01
        56         1        1.862345e-01
        57         1        9.883343e-01
        58         1       -6.771520e-01
        59         1       -2.282784e-01
        60         1       -1.608316e+00
        61         1        3.406180e-01
        62         1       -1.141135e+00
        63         1       -2.934043e-02
        64         1       -3.153989e-01
        65         1        5.432308e-01
        66         1        1.357571e+00
        67         1        1.940805e-01
        68         1       -8.089143e-01
        69         1        8.458608e-01
        70         1       -3.670004e-01
        71         1       -1.238166e-01
        72         1        1.536120e+00
        73         1       -1.651514e+00
        74         1        5.647177e-01
        75         1       -1.761099e+00
        76         1        6.561312e-01
        77         1       -1.155350e+00
        78         1        1.244614e+00
        79         1        1.296772e+00
        80         1       -1.935721e+00
        81         1        4.495299e-01
        82         1        1.456243e+00
        83         1        6.051021e-01
        84         1        1.067040e-01
        85         1       -2.629351e-01
        86         1       -1.076406e+00
        87         1        7.717803e-01
        88         1       -1.023723e+00
        89         1       -1.074093e+00
        90         1       -6.024742e-01
        91         1        1.913545e+00
        92         1        4.382723e-01
        93         1       -1.523660e-01
        94         1       -1.917925e-01
        95         1       -1.920744e+00
        96         1       -4.631132e-01
        97         1        7.117207e-01
        98         1        2.186008e-01
        99         1       -8.893081e-01
       100         1        4.928233e-01
         1         2       -5.175306e-01
         2         2        2.645445e+00
         3         2       -5.703767e-01
         4         2        6.821915e-01
         5         2       -4.050654e-02
         6         2       -6.803339e-01
         7         2        8.244968e-01
         8         2       -1.078758e+00
         9         2        1.711941e+00
        10         2        2.273178e-01
        11         2        1.047074e+00
        12         2        4.307347e-01
        13         2       -2.703130e+00
        14         2        7.070443e-01
        15         2        1.475797e-01
        16         2        2.481834e-01
        17         2       -1.215527e+00
        18         2        1.199860e+00
        19         2       -1.626753e+00
        20         2        1.173479e+00
        21         2       -9.096543e-01
        22         2        3.714503e-02
        23         2       -2.106010e+00
        24         2       -1.482734e+00
        25         2       -5.653010e-01
        26         2       -1.735262e-01
        27         2        8.826612e-01
        28         2       -2.276049e-01
        29         2       -1.175201e+00
        30         2       -7.929263e-01
        31         2        5.874550e-01
        32         2        5.694058e-01
        33         2        1.323321e+00
        34         2       -1.546985e-01
        35         2        2.272311e-01
        36         2        6.033760e-02
        37         2        9.784454e-01
        38         2       -2.362749e-01
        39         2       -1.772767e+00
        40         2       -1.435624e-01
        41         2       -1.462235e+00
        42         2        2.016019e-02
        43         2       -1.337206e-01
        44         2        1.306463e+00
        45         2        2.154473e-01
        46         2        2.039941e+00
        47         2       -1.300915e-01
        48         2        3.654540e-03
        49         2       -1.246631e-01
        50         2       -9.317481e-03
        51         2       -7.691079e-01
        52         2       -6.810191e-01
        53         2        1.485091e+00
        54         2       -9.264163e-01
        55         2        6.969466e-01
        56         2        1.238843e+00
        57         2        9.709301e-01
        58         2       -3.769605e-01
        59         2        1.295488e+00
        60         2        1.314649e-01
        61         2        1.330816e+00
        62         2        8.171411e-01
        63         2       -1.534938e+00
        64         2        1.701173e+00
        65         2       -1.135072e+00
        66         2        6.211747e-02
        67         2        1.324141e+00
        68         2       -4.531297e-01
        69         2       -3.888700e-02
        70         2       -1.242158e+00
        71         2        1.461156e-01
        72         2        1.114609e+00
        73         2        1.569239e+00
        74         2       -1.851153e+00
        75         2       -7.252144e-01
        76         2       -1.134313e+00
        77         2       -1.936776e+00
        78         2        1.063940e-01
        79         2        2.003350e+00
        80         2        1.797127e+00
        81         2       -1.058843e+00
        82         2        2.632811e-01
        83         2       -4.870930e-01
        84         2       -2.283134e+00
        85         2       -1.081532e+00
        86         2       -1.253988e+00
        87         2        2.065393e+00
        88         2        1.105422e+00
        89         2        4.923813e-01
        90         2       -2.622303e+00
        91         2        4.823356e-01
        92         2        1.072446e+00
        93         2        1.207991e-01
        94         2        2.155045e-01
        95         2       -4.219399e-01
        96         2       -1.667993e-01
        97         2        3.668823e-01
        98         2        1.596083e+00
        99         2       -9.965108e-03
       100         2        1.251404e+00
         1         3        3.772538e-02
         2         3       -1.316790e+00
         3         3        5.240464e-01
         4         3       -8.540539e-01
         5         3        3.289645e-02
         6         3       -1.776981e+00
         7         3        2.281753e+00
         8         3       -4.728483e-01
         9         3        1.585866e-01
        10         3       -7.689323e-01
        11         3        8.561680e-02
        12         3       -2.214589e-01
        13         3       -5.182348e-02
        14         3        4.983099e-01
        15         3        4.885929e-01
        16         3        1.865673e-01
        17         3       -9.825548e-01
        18         3        1.589182e+00
        19         3       -1.650047e+00
        20         3        1.072440e+00
        21         3        4.000540e-01
        22         3       -9.151173e-01
        23         3        1.440603e+00
        24         3        4.279204e-01
        25         3       -3.356761e-02
        26         3       -7.911656e-01
        27         3       -8.185942e-01
        28         3        9.354358e-02
        29         3       -1.614859e+00
        30         3       -1.181810e-01
        31         3       -1.171514e+00
        32         3       -2.755616e+00
        33         3        1.146223e-03
        34         3        2.040829e+00
        35         3       -8.244730e-02
        36         3        2.739248e-01
        37         3        3.224158e-01
        38         3        2.756151e-01
        39         3        1.958996e+00
        40         3        9.629331e-01
        41         3        1.281168e+00
        42         3       -1.130698e-01
        43         3        8.933000e-01
        44         3       -3.764161e-01
        45         3        2.983025e+00
        46         3        7.887088e-01
        47         3        1.624533e+00
        48         3       -5.438470e-01
        49         3       -7.896344e-02
        50         3       -1.212856e+00
        51         3       -4.450254e-01
        52         3        8.278840e-01
        53         3        1.244923e+00
        54         3       -6.526010e-02
        55         3        5.186599e-01
        56         3       -2.079716e+00
        57         3       -1.930456e+00
        58         3        4.252064e-01
        59         3       -1.373254e+00
        60         3       -4.242447e-01
        61         3       -2.446156e+00
        62         3        1.458996e-01
        63         3       -8.510202e-02
        64         3       -5.492960e-01
        65         3        1.138027e+00
        66         3        2.652085e-01
        67         3       -9.921919e-01
        68         3        4.088833e-01
        69         3       -7.404501e-01
        70         3       -1.513912e+00
        71         3        2.032924e+00
        72         3        9.781031e-01
        73         3       -1.075922e+00
        74         3       -2.605158e-01
        75         3       -9.415764e-01
        76         3       -1.401488e-02
        77         3        1.576304e+00
        78         3        2.305283e+00
        79         3        1.759592e-01
        80         3       -9.933988e-02
        81         3        5.068136e-01
        82         3       -9.681998e-01
        83         3       -1.520412e+00
        84         3        1.469378e+00
        85         3        8.891455e-01
        86         3       -1.998249e+00
        87         3       -6.121031e-01
        88         3       -1.620331e-01
        89         3        7.113261e-01
        90         3       -1.155471e+00
        91         3        2.996273e-01
        92         3       -2.008302e-01
        93         3       -5.530186e-01
        94         3       -5.863732e-01
        95         3       -3.935961e-01
        96         3        4.857432e-01
        97         3        1.537247e-02
        98         3        9.603860e-01
        99         3        6.902794e-01
       100         3        1.294687e+00
         1         4        4.300511e-01
         2         4       -5.109258e-01
         3         4        6.620727e-03
         4         4        1.523252e+00
         5         4       -1.301042e+00
         6         4        7.665582e-01
         7         4       -1.014260e+00
         8         4       -6.826324e-01
         9         4       -1.375749e+00
        10         4       -4.366320e-02
        11         4       -9.420067e-01
        12         4        1.160096e+00
        13         4       -2.165176e-01
        14         4        1.991905e+00
        15         4       -1.022579e+00
        16         4       -1.566618e+00
        17         4       -3.732804e-01
        18         4       -5.660190e-01
        19         4       -2.333105e-02
        20         4        5.625622e-01
        21         4        6.428530e-01
        22         4       -1.239738e+00
        23         4        4.839692e-01
        24         4        1.186131e+00
        25         4       -2.701095e-01
        26         4        1.364134e+00
        27         4       -6.285988e-01
        28         4       -9.910363e-01
        29         4       -5.476481e-01
        30         4        8.210335e-01
        31         4        7.688802e-02
        32         4       -2.821302e-01
        33         4        5.145114e-01
        34         4       -6.348474e-01
        35         4        4.684107e-01
        36         4        1.563115e+00
        37         4        9.073527e-02
        38         4        9.017446e-01
        39         4       -2.620250e-01
        40         4        2.807301e-01
        41         4       -7.431192e-01
        42         4        1.093738e+00
        43         4       -1.578742e+00
        44         4        2.733965e-01
        45         4        1.241472e+00
        46         4        1.613480e+00
        47         4        1.459582e+00
        48         4       -7.841938e-01
        49         4        5.877719e-01
        50         4        7.911457e-01
        51         4       -2.275335e+00
        52         4        2.143413e-01
        53         4       -1.866178e-01
        54         4        7.496324e-01
        55         4       -1.698593e-03
        56         4       -4.263857e-01
        57         4        1.458700e+00
        58         4       -1.062533e+00
        59         4       -2.045149e-02
        60         4       -3.119061e-01
        61         4       -6.199786e-01
        62         4        6.919736e-01
        63         4        9.061875e-01
        64         4       -1.517601e-01
        65         4        1.598817e+00
        66         4        1.658974e+00
        67         4       -9.595224e-01
        68         4       -1.988125e-01
        69         4       -3.499728e-01
        70         4       -3.693433e-01
        71         4       -1.747808e+00
        72         4       -3.211164e-01
        73         4        5.087920e-01
        74         4        8.552986e-01
        75         4        5.418898e-01
        76         4        4.241096e-01
        77         4        4.385713e-01
        78         4       -4.533639e-01
        79         4       -5.291212e-01
        80         4        1.347431e-01
        81         4       -8.952617e-01
        82         4       -9.104667e-01
        83         4       -4.658251e-01
        84         4        4.496238e-01
        85         4        1.744716e+00
        86         4        1.604916e+00
        87         4       -5.084547e-01
        88         4       -2.336381e-01
        89         4        9.104954e-01
        90         4        4.841016e-01
        91         4       -4.856450e-01
        92         4        5.393922e-02
        93         4       -9.230536e-01
        94         4        7.179992e-02
        95         4        2.196060e+00
        96         4       -8.415486e-01
        97         4       -1.519342e+00
        98         4        5.202651e-01
        99         4       -4.886784e-01
       100         4        2.772347e-01
         1         5       -1.766698e-01
         2         5        1.239772e+00
         3         5       -7.786635e-01
         4         5        4.602546e-01
         5         5        8.586034e-01
         6         5       -3.677507e-01
         7         5        1.155460e+00
         8         5       -7.981938e-01
         9         5       -1.840340e-04
        10         5        2.075634e+00
        11         5       -7.674502e-01
        12         5       -6.988568e-01
        13         5       -1.057140e+00
        14         5        3.826158e-01
        15         5       -8.890379e-02
        16         5       -1.203803e+00
        17         5        2.564566e-03
        18         5       -1.771171e+00
        19         5       -8.682398e-01
        20         5        7.236210e-02
        21         5       -3.146847e-02
        22         5        4.167167e-01
        23         5       -2.434720e-01
        24         5       -5.584852e-01
        25         5       -6.173582e-02
        26         5       -6.781642e-01
        27         5       -1.047581e+00
        28         5        7.099320e-01
        29         5       -7.046248e-01
        30         5       -1.161033e+00
        31         5        1.362670e+00
        32         5       -1.399533e+00
        33         5        1.498591e-01
        34         5        5.774315e-01
        35         5        2.196353e-02
        36         5        2.126612e+00
        37         5        1.107835e+00
        38         5        5.537163e-01
        39         5        5.387308e-01
        40         5        1.123319e-01
        41         5       -2.111360e+00
        42         5       -1.159501e+00
        43         5        1.613623e+00
        44         5       -3.172743e-01
        45         5       -9.182961e-01
        46         5       -1.811911e-01
        47         5        1.111706e+00
        48         5       -1.032842e-01
        49         5       -1.673614e+00
        50         5        4.562433e-01
        51         5       -7.659308e-01
        52         5       -2.919983e-01
        53         5        4.985185e-01
        54         5       -1.325302e+00
        55         5       -8.995335e-01
        56         5       -1.360175e+00
        57         5        2.062223e-01
        58         5       -2.115602e+00
        59         5       -1.701179e+00
        60         5        7.753053e-01
        61         5        5.187547e-01
        62         5       -6.856503e-02
        63         5        2.031673e-01
        64         5        3.941499e-01
        65         5       -8.910290e-01
        66         5        1.408456e+00
        67         5       -8.138455e-01
        68         5        1.214174e+00
        69         5       -1.053862e+00
        70         5       -1.679539e+00
        71         5       -1.317593e+00
        72         5       -2.384710e-01
        73         5       -4.765458e-01
        74         5        8.554004e-01
        75         5       -6.619634e-01
        76         5        1.760703e+00
        77         5       -7.020895e-01
        78         5        3.333458e-01
        79         5        1.245770e+00
        80         5        1.237271e+00
        81         5       -2.598659e-01
        82         5       -6.226061e-01
        83         5       -9.195362e-01
        84         5       -6.019085e-01
        85         5       -1.428318e+00
        86         5        7.097639e-01
        87         5        1.787887e+00
        88         5        3.247340e-01
        89         5        1.019571e+00
        90         5       -1.970636e+00
        91         5        1.278715e+00
        92         5        3.901959e-01
        93         5       -2.246571e+00
        94         5        7.929066e-02
        95         5       -8.369901e-01
        96         5       -4.303127e-01
        97         5       -1.547385e+00
        98         5        2.030071e-01
        99         5       -9.917456e-01
       100         5        9.568770e-01
;

param theta:=
    1        4.024796e-01
    2       -8.401653e-01
    3       -1.054148e+00
    4       -5.216912e-01
    5        2.388747e-01
;
param X_true:=
    1        1.646931e-01
    2       -7.166559e-01
    3       -1.354252e-01
    4       -3.257782e-01
    5        1.082605e+00
    6        1.488774e+00
    7       -3.295622e+00
    8        1.968451e+00
    9       -1.325832e+00
   10        4.771295e-01
   11       -8.780810e-02
   12       -7.460726e-01
   13        1.761079e+00
   14       -2.656862e+00
   15       -1.179537e-01
   16        2.393151e-01
   17        1.978751e+00
   18       -3.106804e+00
   19        3.588938e+00
   20       -1.982379e+00
   21        3.866080e-01
   22        1.874696e+00
   23       -6.571334e-02
   24       -1.598666e-01
   25        8.346948e-01
   26        5.114367e-01
   27        3.968124e-02
   28        1.486295e+00
   29        2.586851e+00
   30        1.168596e-01
   31        7.901819e-01
   32        3.132700e+00
   33       -8.119454e-01
   34       -2.201599e+00
   35       -9.588349e-01
   36       -4.684611e-02
   37       -1.283609e+00
   38       -6.925729e-01
   39       -1.052803e-01
   40       -8.891496e-01
   41       -6.859921e-01
   42       -9.567177e-01
   43        1.797853e+00
   44       -1.452023e+00
   45       -4.025360e+00
   46       -3.203717e+00
   47       -2.060382e+00
   48        1.207157e+00
   49       -9.486318e-01
   50        8.629718e-01
   51        2.552887e+00
   52       -9.618476e-01
   53       -2.073158e+00
   54       -4.973155e-01
   55       -1.563635e+00
   56        1.123982e+00
   57        9.053000e-01
   58       -3.551111e-01
   59       -1.283875e-01
   60        3.736981e-02
   61        2.044952e+00
   62       -1.676992e+00
   63        9.432843e-01
   64       -8.038442e-01
   65       -1.074295e+00
   66       -3.143909e-01
   67        3.177004e-01
   68        1.786295e-02
   69        1.084494e+00
   70        2.283279e+00
   71       -1.718521e+00
   72       -1.238705e+00
   73       -1.228207e+00
   74        1.815316e+00
   75        4.522292e-01
   76        1.431197e+00
   77       -8.959609e-01
   78       -1.702424e+00
   79       -7.730872e-01
   80       -1.958995e+00
   81        9.412475e-01
   82        1.711792e+00
   83        2.278883e+00
   84        3.386875e-02
   85       -1.385844e+00
   86        2.059050e+00
   87       -8.706069e-02
   88       -9.705002e-01
   89       -1.827273e+00
   90        2.455435e+00
   91        6.078794e-01
   92       -4.478627e-01
   93        3.650481e-01
   94        3.413555e-01
   95       -1.349253e+00
   96       -2.220624e-01
   97        3.850028e-01
   98       -2.488305e+00
   99       -1.059177e+00
  100       -2.133884e+00
;
param X:=
    1       -8.975988e-01
    2       -7.166559e-01
    3       -1.354252e-01
    4        1.185529e+00
    5        1.082605e+00
    6        1.873883e+00
    7        1.184253e+00
    8       -4.899842e-01
    9       -1.367680e+00
   10        3.968443e-01
   11       -1.155391e+00
   12        3.808905e-01
   13        9.836586e-01
   14       -1.742309e+00
   15       -2.522712e-01
   16        3.861193e-01
   17        2.137719e-01
   18        5.589317e-01
   19        3.588938e+00
   20       -1.982379e+00
   21        3.866080e-01
   22        1.874696e+00
   23        8.268120e-01
   24       -1.598666e-01
   25        8.346948e-01
   26        5.643268e-01
   27       -6.958391e-01
   28       -9.027174e-01
   29        2.586851e+00
   30        7.755833e-01
   31        7.901819e-01
   32        3.132700e+00
   33       -4.121657e-01
   34       -2.201599e+00
   35       -1.116407e+00
   36       -4.684611e-02
   37       -1.283609e+00
   38       -6.925729e-01
   39       -1.052803e-01
   40       -8.891496e-01
   41       -8.939196e-01
   42       -5.669651e-02
   43        1.344589e+00
   44       -6.194594e-01
   45       -4.025360e+00
   46        1.509623e+00
   47       -2.060382e+00
   48        1.207157e+00
   49        1.431718e+00
   50       -1.732741e+00
   51        2.552887e+00
   52       -9.618476e-01
   53        1.601930e+00
   54       -4.973155e-01
   55       -1.563635e+00
   56        1.123982e+00
   57       -1.254994e+00
   58       -1.877465e-01
   59       -1.283875e-01
   60        1.362592e+00
   61        2.044952e+00
   62       -1.676992e+00
   63        9.432843e-01
   64       -1.214520e+00
   65        1.953884e-01
   66       -3.143909e-01
   67        3.177004e-01
   68        1.786295e-02
   69        2.344052e+00
   70       -1.768842e-01
   71       -6.584271e-01
   72       -1.238705e+00
   73       -1.088463e+00
   74        1.815316e+00
   75        4.522292e-01
   76        1.431197e+00
   77       -1.855417e+00
   78       -1.702424e+00
   79       -7.730872e-01
   80       -1.958995e+00
   81        3.012389e+00
   82        1.711792e+00
   83       -7.809658e-01
   84       -2.741061e-01
   85       -1.385844e+00
   86       -2.060027e-01
   87       -8.706069e-02
   88        1.786203e-02
   89       -1.827273e+00
   90        8.278659e-02
   91        6.078794e-01
   92       -4.478627e-01
   93        3.650481e-01
   94        3.413555e-01
   95        1.122653e+00
   96        3.283235e-02
   97        5.759126e-01
   98       -2.488305e+00
   99       -1.059177e+00
  100       -2.216450e-01
;
param outliervec:=
    1    1
    2    0
    3    0
    4    1
    5    0
    6    1
    7    1
    8    1
    9    1
   10    1
   11    1
   12    1
   13    1
   14    1
   15    1
   16    1
   17    1
   18    1
   19    0
   20    0
   21    0
   22    0
   23    1
   24    0
   25    0
   26    1
   27    1
   28    1
   29    0
   30    1
   31    0
   32    0
   33    1
   34    0
   35    1
   36    0
   37    0
   38    0
   39    0
   40    0
   41    1
   42    1
   43    1
   44    1
   45    0
   46    1
   47    0
   48    0
   49    1
   50    1
   51    0
   52    0
   53    1
   54    0
   55    0
   56    0
   57    1
   58    1
   59    0
   60    1
   61    0
   62    0
   63    0
   64    1
   65    1
   66    0
   67    0
   68    0
   69    1
   70    1
   71    1
   72    0
   73    1
   74    0
   75    0
   76    0
   77    1
   78    0
   79    0
   80    0
   81    1
   82    0
   83    1
   84    1
   85    0
   86    1
   87    0
   88    1
   89    0
   90    1
   91    0
   92    0
   93    0
   94    0
   95    1
   96    1
   97    1
   98    0
   99    0
  100    1
;